benchmarks_vrp/CMT12/tsp_classic/CMT12_2.vrp
NAME: CMT12_2
TYPE: CVRP
COMMENT: 819.56 - Cluster Nr.2
DIMENSION: 18
CAPACITY: 200
EDGE_WEIGHT_TYPE: EUC_2D
NODE_COORD_TYPE: TWOD_COORDS
NODE_COORD_SECTION: 
2 30 35
8 30 30
12 47 35
3 33 35
4 35 30
17 25 30
6 45 35
7 48 30
10 28 35
13 32 30
14 25 35
5 45 30
11 26 32
15 33 32
16 35 32
1 28 30
9 30 32
18 40 50
DEPOT_SECTION: 
18
-1
DEMAND_SECTION: 
15 20
12 10
8 10
4 10
1 10
9 30
7 10
10 10
16 10
2 10
17 10
14 10
5 10
11 10
13 10
6 10
3 10
18 0
EOF
