benchmarks_vrp/CMT12/tsp_classic/CMT12_2.tour
NAME: CMT12_2 solution
TYPE: TOUR
TOUR_SECTION:
18 3 2 10 14 11 17 1 9 8 13 15 16 4 5 7 12 6 -1
-1
EOF